&CONTROL
    calculation  = "scf"
    max_seconds  =  5.18400e+06
    pseudo_dir   = "./"
    restart_mode = "from_scratch"
/

&SYSTEM
      a                         =  1.34335e+01
    b                         =  1.25485e+01
    c                         =  1.39347e+01
    constrained_magnetization = "none"
    degauss                   =  1.00000e-02
    ecutrho                   =  2.25000e+02
    ecutwfc                   =  2.50000e+01
    ibrav                     = 14
    lda_plus_u                = .FALSE.
    nat                       = 5
    nosym                     = .FALSE.
    nspin                     = 2
    ntyp                      = 3
    occupations               = "smearing"
    smearing                  = "gaussian"
    starting_magnetization(1) =  0.00000e+00
    starting_magnetization(2) =  0.00000e+00
    starting_magnetization(3) =  2.00000e-01
    nbnd = 40
/

&ELECTRONS
    conv_thr         =  1.00000e-06
    diago_david_ndim = 4
    diagonalization  = "david"
    electron_maxstep = 560
    mixing_beta      =  4.00000e-01
    mixing_mode      = "plain"
    mixing_ndim      = 8
    startingpot      = "atomic"
    startingwfc      = "atomic+random"
/

K_POINTS {automatic}
 5 5 5 0 0 0

ATOMIC_SPECIES
H       1.00794  H.pbe-rrkjus.UPF
O      15.99940  O.pbe-rrkjus.UPF
Ti     47.86700  Ti.pbe-sp-van_ak.UPF



ATOMIC_POSITIONS (angstrom)
H             3.2497555909        4.2320989343        5.1516844615
H             3.6339166282        4.2303802982        5.8173920182
O             4.8550901995        5.6149175724        3.4736665975
O             4.8264556177        2.9182021052        3.3608959188
Ti            5.2050836741        4.2258677423        4.2992802328


